NAME : MM27_depots
COMMENT : Instance 27 in MD algorithm. Coordinates of depots and vhcl speeds given.
TYPE : TSP
DIMENSION : 5
EDGE_WEIGHT_TYPE : ATT
NODE_COORD_SECTION
251 14.9057 75.6670 1
252 14.9057 75.6670 1
253 2.8279 79.6106 1
254 2.8279 79.6106 1
255 2.8279 79.6106 1
EOF
